73 67 12 76 44 5 74 4 90 70 38 43 40 36 30 0 18 26 84 11 29 95 49 85 32 54 37 13 42 41 82 68 23 59 31 69 52 8 45 86 15 6 2 58 63 81 60 87 77 46 78 98 53 16 61 19 33 64 99 22 9 71 80 72 79 34 51 17 55 57 39 24 47 92 83 20 7 96 66 89 10 75 50 3 25 88 94 62 14 21 35 28 91 27 65 97 56 93 1 48